68, 587
735, 35
715, 43
1118, 57
420, 94
646, 86
405, 20
952, 72
601, 74
969, 18
445, 22
734, 27
803, 97
905, 60
633, 27
886, 98
616, 77
708, 97
1162, 32
876, 54
445, 6
1020, 24
1108, 97
536, 49
885, 61
483, 37
1232, 91
1036, 88
611, 79
595, 22
370, 30
1040, 29
479, 14
785, 75
764, 86
960, 32
665, 78
758, 89
546, 25
1089, 56
366, 17
294, 94
663, 92
533, 20
659, 75
510, 48
405, 33
670, 63
661, 17
857, 38
529, 69
971, 84
738, 2
1029, 98
532, 51
411, 60
819, 53
778, 50
801, 41
381, 22
1206, 8
443, 76
287, 38
1009, 94
674, 86
287, 91
328, 35
1166, 19
369, 89